p cnf 360 2880
1 -109 0
1 -110 0
109 -109 0
110 -110 0
19 -121 0
19 -122 0
121 -121 0
122 -122 0
37 -133 0
37 -134 0
133 -133 0
134 -134 0
55 -145 0
55 -146 0
145 -145 0
146 -146 0
73 -157 0
73 -158 0
157 -157 0
158 -158 0
91 -169 0
91 -170 0
169 -169 0
170 -170 0
2 -109 0
2 -110 0
109 -109 0
110 -110 0
20 -121 0
20 -122 0
121 -121 0
122 -122 0
38 -133 0
38 -134 0
133 -133 0
134 -134 0
56 -145 0
56 -146 0
145 -145 0
146 -146 0
74 -157 0
74 -158 0
157 -157 0
158 -158 0
92 -169 0
92 -170 0
169 -169 0
170 -170 0
-3 -109 0
-3 -110 0
109 -109 0
110 -110 0
-21 -121 0
-21 -122 0
121 -121 0
122 -122 0
-39 -133 0
-39 -134 0
133 -133 0
134 -134 0
-57 -145 0
-57 -146 0
145 -145 0
146 -146 0
-75 -157 0
-75 -158 0
157 -157 0
158 -158 0
-93 -169 0
-93 -170 0
169 -169 0
170 -170 0
4 -109 0
4 -110 0
109 -109 0
110 -110 0
22 -121 0
22 -122 0
121 -121 0
122 -122 0
40 -133 0
40 -134 0
133 -133 0
134 -134 0
58 -145 0
58 -146 0
145 -145 0
146 -146 0
76 -157 0
76 -158 0
157 -157 0
158 -158 0
94 -169 0
94 -170 0
169 -169 0
170 -170 0
5 -109 0
5 -110 0
109 -109 0
110 -110 0
23 -121 0
23 -122 0
121 -121 0
122 -122 0
41 -133 0
41 -134 0
133 -133 0
134 -134 0
59 -145 0
59 -146 0
145 -145 0
146 -146 0
77 -157 0
77 -158 0
157 -157 0
158 -158 0
95 -169 0
95 -170 0
169 -169 0
170 -170 0
6 -109 0
6 -110 0
109 -109 0
110 -110 0
24 -121 0
24 -122 0
121 -121 0
122 -122 0
42 -133 0
42 -134 0
133 -133 0
134 -134 0
60 -145 0
60 -146 0
145 -145 0
146 -146 0
78 -157 0
78 -158 0
157 -157 0
158 -158 0
96 -169 0
96 -170 0
169 -169 0
170 -170 0
7 -109 0
7 -110 0
109 -109 0
110 -110 0
25 -121 0
25 -122 0
121 -121 0
122 -122 0
43 -133 0
43 -134 0
133 -133 0
134 -134 0
61 -145 0
61 -146 0
145 -145 0
146 -146 0
79 -157 0
79 -158 0
157 -157 0
158 -158 0
97 -169 0
97 -170 0
169 -169 0
170 -170 0
8 -109 0
8 -110 0
109 -109 0
110 -110 0
26 -121 0
26 -122 0
121 -121 0
122 -122 0
44 -133 0
44 -134 0
133 -133 0
134 -134 0
62 -145 0
62 -146 0
145 -145 0
146 -146 0
80 -157 0
80 -158 0
157 -157 0
158 -158 0
98 -169 0
98 -170 0
169 -169 0
170 -170 0
9 -109 0
9 -110 0
109 -109 0
110 -110 0
27 -121 0
27 -122 0
121 -121 0
122 -122 0
45 -133 0
45 -134 0
133 -133 0
134 -134 0
63 -145 0
63 -146 0
145 -145 0
146 -146 0
81 -157 0
81 -158 0
157 -157 0
158 -158 0
99 -169 0
99 -170 0
169 -169 0
170 -170 0
-10 -109 0
-10 -110 0
109 -109 0
110 -110 0
-28 -121 0
-28 -122 0
121 -121 0
122 -122 0
-46 -133 0
-46 -134 0
133 -133 0
134 -134 0
-64 -145 0
-64 -146 0
145 -145 0
146 -146 0
-82 -157 0
-82 -158 0
157 -157 0
158 -158 0
-100 -169 0
-100 -170 0
169 -169 0
170 -170 0
11 -109 0
11 -110 0
109 -109 0
110 -110 0
29 -121 0
29 -122 0
121 -121 0
122 -122 0
47 -133 0
47 -134 0
133 -133 0
134 -134 0
65 -145 0
65 -146 0
145 -145 0
146 -146 0
83 -157 0
83 -158 0
157 -157 0
158 -158 0
101 -169 0
101 -170 0
169 -169 0
170 -170 0
-12 -109 0
-12 -110 0
109 -109 0
110 -110 0
-30 -121 0
-30 -122 0
121 -121 0
122 -122 0
-48 -133 0
-48 -134 0
133 -133 0
134 -134 0
-66 -145 0
-66 -146 0
145 -145 0
146 -146 0
-84 -157 0
-84 -158 0
157 -157 0
158 -158 0
-102 -169 0
-102 -170 0
169 -169 0
170 -170 0
-13 -109 0
-13 -110 0
109 -109 0
110 -110 0
-31 -121 0
-31 -122 0
121 -121 0
122 -122 0
-49 -133 0
-49 -134 0
133 -133 0
134 -134 0
-67 -145 0
-67 -146 0
145 -145 0
146 -146 0
-85 -157 0
-85 -158 0
157 -157 0
158 -158 0
-103 -169 0
-103 -170 0
169 -169 0
170 -170 0
-14 -109 0
-14 -110 0
109 -109 0
110 -110 0
-32 -121 0
-32 -122 0
121 -121 0
122 -122 0
-50 -133 0
-50 -134 0
133 -133 0
134 -134 0
-68 -145 0
-68 -146 0
145 -145 0
146 -146 0
-86 -157 0
-86 -158 0
157 -157 0
158 -158 0
-104 -169 0
-104 -170 0
169 -169 0
170 -170 0
-15 -109 0
-15 -110 0
109 -109 0
110 -110 0
-33 -121 0
-33 -122 0
121 -121 0
122 -122 0
-51 -133 0
-51 -134 0
133 -133 0
134 -134 0
-69 -145 0
-69 -146 0
145 -145 0
146 -146 0
-87 -157 0
-87 -158 0
157 -157 0
158 -158 0
-105 -169 0
-105 -170 0
169 -169 0
170 -170 0
-16 -109 0
-16 -110 0
109 -109 0
110 -110 0
-34 -121 0
-34 -122 0
121 -121 0
122 -122 0
-52 -133 0
-52 -134 0
133 -133 0
134 -134 0
-70 -145 0
-70 -146 0
145 -145 0
146 -146 0
-88 -157 0
-88 -158 0
157 -157 0
158 -158 0
-106 -169 0
-106 -170 0
169 -169 0
170 -170 0
-17 -109 0
-17 -110 0
109 -109 0
110 -110 0
-35 -121 0
-35 -122 0
121 -121 0
122 -122 0
-53 -133 0
-53 -134 0
133 -133 0
134 -134 0
-71 -145 0
-71 -146 0
145 -145 0
146 -146 0
-89 -157 0
-89 -158 0
157 -157 0
158 -158 0
-107 -169 0
-107 -170 0
169 -169 0
170 -170 0
18 -109 0
18 -110 0
109 -109 0
110 -110 0
36 -121 0
36 -122 0
121 -121 0
122 -122 0
54 -133 0
54 -134 0
133 -133 0
134 -134 0
72 -145 0
72 -146 0
145 -145 0
146 -146 0
90 -157 0
90 -158 0
157 -157 0
158 -158 0
108 -169 0
108 -170 0
169 -169 0
170 -170 0
-289 109 0
289 -109 0
-290 110 0
289 -110 0
-289 -109 0
-290 -110 0
-301 109 289 0
301 -109 0
301 -289 0
-302 110 290 0
302 -110 0
302 -290 0
-301 -121 0
-302 -122 0
-313 121 301 0
313 -121 0
313 -301 0
-314 122 302 0
314 -122 0
314 -302 0
-313 -133 0
-314 -134 0
-325 133 313 0
325 -133 0
325 -313 0
-326 134 314 0
326 -134 0
326 -314 0
-325 -145 0
-326 -146 0
-337 145 325 0
337 -145 0
337 -325 0
-338 146 326 0
338 -146 0
338 -326 0
-337 -157 0
-338 -158 0
-349 157 337 0
349 -157 0
349 -337 0
-350 158 338 0
350 -158 0
350 -338 0
-349 -169 0
-350 -170 0
349 0
350 0
1 -111 0
1 -112 0
111 -111 0
112 -112 0
19 -123 0
19 -124 0
123 -123 0
124 -124 0
37 -135 0
37 -136 0
135 -135 0
136 -136 0
55 -147 0
55 -148 0
147 -147 0
148 -148 0
73 -159 0
73 -160 0
159 -159 0
160 -160 0
91 -171 0
91 -172 0
171 -171 0
172 -172 0
-2 -111 0
-2 -112 0
111 -111 0
112 -112 0
-20 -123 0
-20 -124 0
123 -123 0
124 -124 0
-38 -135 0
-38 -136 0
135 -135 0
136 -136 0
-56 -147 0
-56 -148 0
147 -147 0
148 -148 0
-74 -159 0
-74 -160 0
159 -159 0
160 -160 0
-92 -171 0
-92 -172 0
171 -171 0
172 -172 0
3 -111 0
3 -112 0
111 -111 0
112 -112 0
21 -123 0
21 -124 0
123 -123 0
124 -124 0
39 -135 0
39 -136 0
135 -135 0
136 -136 0
57 -147 0
57 -148 0
147 -147 0
148 -148 0
75 -159 0
75 -160 0
159 -159 0
160 -160 0
93 -171 0
93 -172 0
171 -171 0
172 -172 0
-4 -111 0
-4 -112 0
111 -111 0
112 -112 0
-22 -123 0
-22 -124 0
123 -123 0
124 -124 0
-40 -135 0
-40 -136 0
135 -135 0
136 -136 0
-58 -147 0
-58 -148 0
147 -147 0
148 -148 0
-76 -159 0
-76 -160 0
159 -159 0
160 -160 0
-94 -171 0
-94 -172 0
171 -171 0
172 -172 0
-5 -111 0
-5 -112 0
111 -111 0
112 -112 0
-23 -123 0
-23 -124 0
123 -123 0
124 -124 0
-41 -135 0
-41 -136 0
135 -135 0
136 -136 0
-59 -147 0
-59 -148 0
147 -147 0
148 -148 0
-77 -159 0
-77 -160 0
159 -159 0
160 -160 0
-95 -171 0
-95 -172 0
171 -171 0
172 -172 0
6 -111 0
6 -112 0
111 -111 0
112 -112 0
24 -123 0
24 -124 0
123 -123 0
124 -124 0
42 -135 0
42 -136 0
135 -135 0
136 -136 0
60 -147 0
60 -148 0
147 -147 0
148 -148 0
78 -159 0
78 -160 0
159 -159 0
160 -160 0
96 -171 0
96 -172 0
171 -171 0
172 -172 0
-7 -111 0
-7 -112 0
111 -111 0
112 -112 0
-25 -123 0
-25 -124 0
123 -123 0
124 -124 0
-43 -135 0
-43 -136 0
135 -135 0
136 -136 0
-61 -147 0
-61 -148 0
147 -147 0
148 -148 0
-79 -159 0
-79 -160 0
159 -159 0
160 -160 0
-97 -171 0
-97 -172 0
171 -171 0
172 -172 0
8 -111 0
8 -112 0
111 -111 0
112 -112 0
26 -123 0
26 -124 0
123 -123 0
124 -124 0
44 -135 0
44 -136 0
135 -135 0
136 -136 0
62 -147 0
62 -148 0
147 -147 0
148 -148 0
80 -159 0
80 -160 0
159 -159 0
160 -160 0
98 -171 0
98 -172 0
171 -171 0
172 -172 0
9 -111 0
9 -112 0
111 -111 0
112 -112 0
27 -123 0
27 -124 0
123 -123 0
124 -124 0
45 -135 0
45 -136 0
135 -135 0
136 -136 0
63 -147 0
63 -148 0
147 -147 0
148 -148 0
81 -159 0
81 -160 0
159 -159 0
160 -160 0
99 -171 0
99 -172 0
171 -171 0
172 -172 0
-10 -111 0
-10 -112 0
111 -111 0
112 -112 0
-28 -123 0
-28 -124 0
123 -123 0
124 -124 0
-46 -135 0
-46 -136 0
135 -135 0
136 -136 0
-64 -147 0
-64 -148 0
147 -147 0
148 -148 0
-82 -159 0
-82 -160 0
159 -159 0
160 -160 0
-100 -171 0
-100 -172 0
171 -171 0
172 -172 0
11 -111 0
11 -112 0
111 -111 0
112 -112 0
29 -123 0
29 -124 0
123 -123 0
124 -124 0
47 -135 0
47 -136 0
135 -135 0
136 -136 0
65 -147 0
65 -148 0
147 -147 0
148 -148 0
83 -159 0
83 -160 0
159 -159 0
160 -160 0
101 -171 0
101 -172 0
171 -171 0
172 -172 0
-12 -111 0
-12 -112 0
111 -111 0
112 -112 0
-30 -123 0
-30 -124 0
123 -123 0
124 -124 0
-48 -135 0
-48 -136 0
135 -135 0
136 -136 0
-66 -147 0
-66 -148 0
147 -147 0
148 -148 0
-84 -159 0
-84 -160 0
159 -159 0
160 -160 0
-102 -171 0
-102 -172 0
171 -171 0
172 -172 0
-13 -111 0
-13 -112 0
111 -111 0
112 -112 0
-31 -123 0
-31 -124 0
123 -123 0
124 -124 0
-49 -135 0
-49 -136 0
135 -135 0
136 -136 0
-67 -147 0
-67 -148 0
147 -147 0
148 -148 0
-85 -159 0
-85 -160 0
159 -159 0
160 -160 0
-103 -171 0
-103 -172 0
171 -171 0
172 -172 0
-14 -111 0
-14 -112 0
111 -111 0
112 -112 0
-32 -123 0
-32 -124 0
123 -123 0
124 -124 0
-50 -135 0
-50 -136 0
135 -135 0
136 -136 0
-68 -147 0
-68 -148 0
147 -147 0
148 -148 0
-86 -159 0
-86 -160 0
159 -159 0
160 -160 0
-104 -171 0
-104 -172 0
171 -171 0
172 -172 0
15 -111 0
15 -112 0
111 -111 0
112 -112 0
33 -123 0
33 -124 0
123 -123 0
124 -124 0
51 -135 0
51 -136 0
135 -135 0
136 -136 0
69 -147 0
69 -148 0
147 -147 0
148 -148 0
87 -159 0
87 -160 0
159 -159 0
160 -160 0
105 -171 0
105 -172 0
171 -171 0
172 -172 0
-16 -111 0
-16 -112 0
111 -111 0
112 -112 0
-34 -123 0
-34 -124 0
123 -123 0
124 -124 0
-52 -135 0
-52 -136 0
135 -135 0
136 -136 0
-70 -147 0
-70 -148 0
147 -147 0
148 -148 0
-88 -159 0
-88 -160 0
159 -159 0
160 -160 0
-106 -171 0
-106 -172 0
171 -171 0
172 -172 0
17 -111 0
17 -112 0
111 -111 0
112 -112 0
35 -123 0
35 -124 0
123 -123 0
124 -124 0
53 -135 0
53 -136 0
135 -135 0
136 -136 0
71 -147 0
71 -148 0
147 -147 0
148 -148 0
89 -159 0
89 -160 0
159 -159 0
160 -160 0
107 -171 0
107 -172 0
171 -171 0
172 -172 0
18 -111 0
18 -112 0
111 -111 0
112 -112 0
36 -123 0
36 -124 0
123 -123 0
124 -124 0
54 -135 0
54 -136 0
135 -135 0
136 -136 0
72 -147 0
72 -148 0
147 -147 0
148 -148 0
90 -159 0
90 -160 0
159 -159 0
160 -160 0
108 -171 0
108 -172 0
171 -171 0
172 -172 0
-291 111 0
291 -111 0
-292 112 0
291 -112 0
-291 -111 0
-292 -112 0
-303 111 291 0
303 -111 0
303 -291 0
-304 112 292 0
304 -112 0
304 -292 0
-303 -123 0
-304 -124 0
-315 123 303 0
315 -123 0
315 -303 0
-316 124 304 0
316 -124 0
316 -304 0
-315 -135 0
-316 -136 0
-327 135 315 0
327 -135 0
327 -315 0
-328 136 316 0
328 -136 0
328 -316 0
-327 -147 0
-328 -148 0
-339 147 327 0
339 -147 0
339 -327 0
-340 148 328 0
340 -148 0
340 -328 0
-339 -159 0
-340 -160 0
-351 159 339 0
351 -159 0
351 -339 0
-352 160 340 0
352 -160 0
352 -340 0
-351 -171 0
-352 -172 0
351 0
352 0
1 -181 -113 0
-1 181 -113 0
1 181 -114 0
-1 -181 -114 0
19 -181 -125 0
-19 181 -125 0
19 181 -126 0
-19 -181 -126 0
37 -181 -137 0
-37 181 -137 0
37 181 -138 0
-37 -181 -138 0
55 -181 -149 0
-55 181 -149 0
55 181 -150 0
-55 -181 -150 0
73 -181 -161 0
-73 181 -161 0
73 181 -162 0
-73 -181 -162 0
91 -181 -173 0
-91 181 -173 0
91 181 -174 0
-91 -181 -174 0
2 -113 0
2 -114 0
113 -113 0
114 -114 0
20 -125 0
20 -126 0
125 -125 0
126 -126 0
38 -137 0
38 -138 0
137 -137 0
138 -138 0
56 -149 0
56 -150 0
149 -149 0
150 -150 0
74 -161 0
74 -162 0
161 -161 0
162 -162 0
92 -173 0
92 -174 0
173 -173 0
174 -174 0
3 -182 -113 0
-3 182 -113 0
3 182 -114 0
-3 -182 -114 0
21 -182 -125 0
-21 182 -125 0
21 182 -126 0
-21 -182 -126 0
39 -182 -137 0
-39 182 -137 0
39 182 -138 0
-39 -182 -138 0
57 -182 -149 0
-57 182 -149 0
57 182 -150 0
-57 -182 -150 0
75 -182 -161 0
-75 182 -161 0
75 182 -162 0
-75 -182 -162 0
93 -182 -173 0
-93 182 -173 0
93 182 -174 0
-93 -182 -174 0
4 -113 0
4 -114 0
113 -113 0
114 -114 0
22 -125 0
22 -126 0
125 -125 0
126 -126 0
40 -137 0
40 -138 0
137 -137 0
138 -138 0
58 -149 0
58 -150 0
149 -149 0
150 -150 0
76 -161 0
76 -162 0
161 -161 0
162 -162 0
94 -173 0
94 -174 0
173 -173 0
174 -174 0
5 -113 0
5 -114 0
113 -113 0
114 -114 0
23 -125 0
23 -126 0
125 -125 0
126 -126 0
41 -137 0
41 -138 0
137 -137 0
138 -138 0
59 -149 0
59 -150 0
149 -149 0
150 -150 0
77 -161 0
77 -162 0
161 -161 0
162 -162 0
95 -173 0
95 -174 0
173 -173 0
174 -174 0
6 -183 -113 0
-6 183 -113 0
6 183 -114 0
-6 -183 -114 0
24 -183 -125 0
-24 183 -125 0
24 183 -126 0
-24 -183 -126 0
42 -183 -137 0
-42 183 -137 0
42 183 -138 0
-42 -183 -138 0
60 -183 -149 0
-60 183 -149 0
60 183 -150 0
-60 -183 -150 0
78 -183 -161 0
-78 183 -161 0
78 183 -162 0
-78 -183 -162 0
96 -183 -173 0
-96 183 -173 0
96 183 -174 0
-96 -183 -174 0
7 -184 -113 0
-7 184 -113 0
7 184 -114 0
-7 -184 -114 0
25 -184 -125 0
-25 184 -125 0
25 184 -126 0
-25 -184 -126 0
43 -184 -137 0
-43 184 -137 0
43 184 -138 0
-43 -184 -138 0
61 -184 -149 0
-61 184 -149 0
61 184 -150 0
-61 -184 -150 0
79 -184 -161 0
-79 184 -161 0
79 184 -162 0
-79 -184 -162 0
97 -184 -173 0
-97 184 -173 0
97 184 -174 0
-97 -184 -174 0
8 -185 -113 0
-8 185 -113 0
8 185 -114 0
-8 -185 -114 0
26 -185 -125 0
-26 185 -125 0
26 185 -126 0
-26 -185 -126 0
44 -185 -137 0
-44 185 -137 0
44 185 -138 0
-44 -185 -138 0
62 -185 -149 0
-62 185 -149 0
62 185 -150 0
-62 -185 -150 0
80 -185 -161 0
-80 185 -161 0
80 185 -162 0
-80 -185 -162 0
98 -185 -173 0
-98 185 -173 0
98 185 -174 0
-98 -185 -174 0
9 -186 -113 0
-9 186 -113 0
9 186 -114 0
-9 -186 -114 0
27 -186 -125 0
-27 186 -125 0
27 186 -126 0
-27 -186 -126 0
45 -186 -137 0
-45 186 -137 0
45 186 -138 0
-45 -186 -138 0
63 -186 -149 0
-63 186 -149 0
63 186 -150 0
-63 -186 -150 0
81 -186 -161 0
-81 186 -161 0
81 186 -162 0
-81 -186 -162 0
99 -186 -173 0
-99 186 -173 0
99 186 -174 0
-99 -186 -174 0
10 -187 -113 0
-10 187 -113 0
10 187 -114 0
-10 -187 -114 0
28 -187 -125 0
-28 187 -125 0
28 187 -126 0
-28 -187 -126 0
46 -187 -137 0
-46 187 -137 0
46 187 -138 0
-46 -187 -138 0
64 -187 -149 0
-64 187 -149 0
64 187 -150 0
-64 -187 -150 0
82 -187 -161 0
-82 187 -161 0
82 187 -162 0
-82 -187 -162 0
100 -187 -173 0
-100 187 -173 0
100 187 -174 0
-100 -187 -174 0
11 -188 -113 0
-11 188 -113 0
11 188 -114 0
-11 -188 -114 0
29 -188 -125 0
-29 188 -125 0
29 188 -126 0
-29 -188 -126 0
47 -188 -137 0
-47 188 -137 0
47 188 -138 0
-47 -188 -138 0
65 -188 -149 0
-65 188 -149 0
65 188 -150 0
-65 -188 -150 0
83 -188 -161 0
-83 188 -161 0
83 188 -162 0
-83 -188 -162 0
101 -188 -173 0
-101 188 -173 0
101 188 -174 0
-101 -188 -174 0
12 -189 -113 0
-12 189 -113 0
12 189 -114 0
-12 -189 -114 0
30 -189 -125 0
-30 189 -125 0
30 189 -126 0
-30 -189 -126 0
48 -189 -137 0
-48 189 -137 0
48 189 -138 0
-48 -189 -138 0
66 -189 -149 0
-66 189 -149 0
66 189 -150 0
-66 -189 -150 0
84 -189 -161 0
-84 189 -161 0
84 189 -162 0
-84 -189 -162 0
102 -189 -173 0
-102 189 -173 0
102 189 -174 0
-102 -189 -174 0
13 -190 -113 0
-13 190 -113 0
13 190 -114 0
-13 -190 -114 0
31 -190 -125 0
-31 190 -125 0
31 190 -126 0
-31 -190 -126 0
49 -190 -137 0
-49 190 -137 0
49 190 -138 0
-49 -190 -138 0
67 -190 -149 0
-67 190 -149 0
67 190 -150 0
-67 -190 -150 0
85 -190 -161 0
-85 190 -161 0
85 190 -162 0
-85 -190 -162 0
103 -190 -173 0
-103 190 -173 0
103 190 -174 0
-103 -190 -174 0
14 -191 -113 0
-14 191 -113 0
14 191 -114 0
-14 -191 -114 0
32 -191 -125 0
-32 191 -125 0
32 191 -126 0
-32 -191 -126 0
50 -191 -137 0
-50 191 -137 0
50 191 -138 0
-50 -191 -138 0
68 -191 -149 0
-68 191 -149 0
68 191 -150 0
-68 -191 -150 0
86 -191 -161 0
-86 191 -161 0
86 191 -162 0
-86 -191 -162 0
104 -191 -173 0
-104 191 -173 0
104 191 -174 0
-104 -191 -174 0
15 -192 -113 0
-15 192 -113 0
15 192 -114 0
-15 -192 -114 0
33 -192 -125 0
-33 192 -125 0
33 192 -126 0
-33 -192 -126 0
51 -192 -137 0
-51 192 -137 0
51 192 -138 0
-51 -192 -138 0
69 -192 -149 0
-69 192 -149 0
69 192 -150 0
-69 -192 -150 0
87 -192 -161 0
-87 192 -161 0
87 192 -162 0
-87 -192 -162 0
105 -192 -173 0
-105 192 -173 0
105 192 -174 0
-105 -192 -174 0
16 -193 -113 0
-16 193 -113 0
16 193 -114 0
-16 -193 -114 0
34 -193 -125 0
-34 193 -125 0
34 193 -126 0
-34 -193 -126 0
52 -193 -137 0
-52 193 -137 0
52 193 -138 0
-52 -193 -138 0
70 -193 -149 0
-70 193 -149 0
70 193 -150 0
-70 -193 -150 0
88 -193 -161 0
-88 193 -161 0
88 193 -162 0
-88 -193 -162 0
106 -193 -173 0
-106 193 -173 0
106 193 -174 0
-106 -193 -174 0
17 -113 0
17 -114 0
113 -113 0
114 -114 0
35 -125 0
35 -126 0
125 -125 0
126 -126 0
53 -137 0
53 -138 0
137 -137 0
138 -138 0
71 -149 0
71 -150 0
149 -149 0
150 -150 0
89 -161 0
89 -162 0
161 -161 0
162 -162 0
107 -173 0
107 -174 0
173 -173 0
174 -174 0
18 -113 0
18 -114 0
113 -113 0
114 -114 0
36 -125 0
36 -126 0
125 -125 0
126 -126 0
54 -137 0
54 -138 0
137 -137 0
138 -138 0
72 -149 0
72 -150 0
149 -149 0
150 -150 0
90 -161 0
90 -162 0
161 -161 0
162 -162 0
108 -173 0
108 -174 0
173 -173 0
174 -174 0
-293 113 0
293 -113 0
-294 114 0
293 -114 0
-293 -113 0
-294 -114 0
-305 113 293 0
305 -113 0
305 -293 0
-306 114 294 0
306 -114 0
306 -294 0
-305 -125 0
-306 -126 0
-317 125 305 0
317 -125 0
317 -305 0
-318 126 306 0
318 -126 0
318 -306 0
-317 -137 0
-318 -138 0
-329 137 317 0
329 -137 0
329 -317 0
-330 138 318 0
330 -138 0
330 -318 0
-329 -149 0
-330 -150 0
-341 149 329 0
341 -149 0
341 -329 0
-342 150 330 0
342 -150 0
342 -330 0
-341 -161 0
-342 -162 0
-353 161 341 0
353 -161 0
353 -341 0
-354 162 342 0
354 -162 0
354 -342 0
-353 -173 0
-354 -174 0
353 0
354 0
1 -194 -115 0
-1 194 -115 0
1 194 -116 0
-1 -194 -116 0
19 -194 -127 0
-19 194 -127 0
19 194 -128 0
-19 -194 -128 0
37 -194 -139 0
-37 194 -139 0
37 194 -140 0
-37 -194 -140 0
55 -194 -151 0
-55 194 -151 0
55 194 -152 0
-55 -194 -152 0
73 -194 -163 0
-73 194 -163 0
73 194 -164 0
-73 -194 -164 0
91 -194 -175 0
-91 194 -175 0
91 194 -176 0
-91 -194 -176 0
2 -195 -115 0
-2 195 -115 0
2 195 -116 0
-2 -195 -116 0
20 -195 -127 0
-20 195 -127 0
20 195 -128 0
-20 -195 -128 0
38 -195 -139 0
-38 195 -139 0
38 195 -140 0
-38 -195 -140 0
56 -195 -151 0
-56 195 -151 0
56 195 -152 0
-56 -195 -152 0
74 -195 -163 0
-74 195 -163 0
74 195 -164 0
-74 -195 -164 0
92 -195 -175 0
-92 195 -175 0
92 195 -176 0
-92 -195 -176 0
3 -115 0
3 -116 0
115 -115 0
116 -116 0
21 -127 0
21 -128 0
127 -127 0
128 -128 0
39 -139 0
39 -140 0
139 -139 0
140 -140 0
57 -151 0
57 -152 0
151 -151 0
152 -152 0
75 -163 0
75 -164 0
163 -163 0
164 -164 0
93 -175 0
93 -176 0
175 -175 0
176 -176 0
4 -196 -115 0
-4 196 -115 0
4 196 -116 0
-4 -196 -116 0
22 -196 -127 0
-22 196 -127 0
22 196 -128 0
-22 -196 -128 0
40 -196 -139 0
-40 196 -139 0
40 196 -140 0
-40 -196 -140 0
58 -196 -151 0
-58 196 -151 0
58 196 -152 0
-58 -196 -152 0
76 -196 -163 0
-76 196 -163 0
76 196 -164 0
-76 -196 -164 0
94 -196 -175 0
-94 196 -175 0
94 196 -176 0
-94 -196 -176 0
5 -197 -115 0
-5 197 -115 0
5 197 -116 0
-5 -197 -116 0
23 -197 -127 0
-23 197 -127 0
23 197 -128 0
-23 -197 -128 0
41 -197 -139 0
-41 197 -139 0
41 197 -140 0
-41 -197 -140 0
59 -197 -151 0
-59 197 -151 0
59 197 -152 0
-59 -197 -152 0
77 -197 -163 0
-77 197 -163 0
77 197 -164 0
-77 -197 -164 0
95 -197 -175 0
-95 197 -175 0
95 197 -176 0
-95 -197 -176 0
6 -198 -115 0
-6 198 -115 0
6 198 -116 0
-6 -198 -116 0
24 -198 -127 0
-24 198 -127 0
24 198 -128 0
-24 -198 -128 0
42 -198 -139 0
-42 198 -139 0
42 198 -140 0
-42 -198 -140 0
60 -198 -151 0
-60 198 -151 0
60 198 -152 0
-60 -198 -152 0
78 -198 -163 0
-78 198 -163 0
78 198 -164 0
-78 -198 -164 0
96 -198 -175 0
-96 198 -175 0
96 198 -176 0
-96 -198 -176 0
-7 -115 0
-7 -116 0
115 -115 0
116 -116 0
-25 -127 0
-25 -128 0
127 -127 0
128 -128 0
-43 -139 0
-43 -140 0
139 -139 0
140 -140 0
-61 -151 0
-61 -152 0
151 -151 0
152 -152 0
-79 -163 0
-79 -164 0
163 -163 0
164 -164 0
-97 -175 0
-97 -176 0
175 -175 0
176 -176 0
8 -199 -115 0
-8 199 -115 0
8 199 -116 0
-8 -199 -116 0
26 -199 -127 0
-26 199 -127 0
26 199 -128 0
-26 -199 -128 0
44 -199 -139 0
-44 199 -139 0
44 199 -140 0
-44 -199 -140 0
62 -199 -151 0
-62 199 -151 0
62 199 -152 0
-62 -199 -152 0
80 -199 -163 0
-80 199 -163 0
80 199 -164 0
-80 -199 -164 0
98 -199 -175 0
-98 199 -175 0
98 199 -176 0
-98 -199 -176 0
9 -200 -115 0
-9 200 -115 0
9 200 -116 0
-9 -200 -116 0
27 -200 -127 0
-27 200 -127 0
27 200 -128 0
-27 -200 -128 0
45 -200 -139 0
-45 200 -139 0
45 200 -140 0
-45 -200 -140 0
63 -200 -151 0
-63 200 -151 0
63 200 -152 0
-63 -200 -152 0
81 -200 -163 0
-81 200 -163 0
81 200 -164 0
-81 -200 -164 0
99 -200 -175 0
-99 200 -175 0
99 200 -176 0
-99 -200 -176 0
10 -201 -115 0
-10 201 -115 0
10 201 -116 0
-10 -201 -116 0
28 -201 -127 0
-28 201 -127 0
28 201 -128 0
-28 -201 -128 0
46 -201 -139 0
-46 201 -139 0
46 201 -140 0
-46 -201 -140 0
64 -201 -151 0
-64 201 -151 0
64 201 -152 0
-64 -201 -152 0
82 -201 -163 0
-82 201 -163 0
82 201 -164 0
-82 -201 -164 0
100 -201 -175 0
-100 201 -175 0
100 201 -176 0
-100 -201 -176 0
11 -115 0
11 -116 0
115 -115 0
116 -116 0
29 -127 0
29 -128 0
127 -127 0
128 -128 0
47 -139 0
47 -140 0
139 -139 0
140 -140 0
65 -151 0
65 -152 0
151 -151 0
152 -152 0
83 -163 0
83 -164 0
163 -163 0
164 -164 0
101 -175 0
101 -176 0
175 -175 0
176 -176 0
-12 -115 0
-12 -116 0
115 -115 0
116 -116 0
-30 -127 0
-30 -128 0
127 -127 0
128 -128 0
-48 -139 0
-48 -140 0
139 -139 0
140 -140 0
-66 -151 0
-66 -152 0
151 -151 0
152 -152 0
-84 -163 0
-84 -164 0
163 -163 0
164 -164 0
-102 -175 0
-102 -176 0
175 -175 0
176 -176 0
-13 -115 0
-13 -116 0
115 -115 0
116 -116 0
-31 -127 0
-31 -128 0
127 -127 0
128 -128 0
-49 -139 0
-49 -140 0
139 -139 0
140 -140 0
-67 -151 0
-67 -152 0
151 -151 0
152 -152 0
-85 -163 0
-85 -164 0
163 -163 0
164 -164 0
-103 -175 0
-103 -176 0
175 -175 0
176 -176 0
-14 -115 0
-14 -116 0
115 -115 0
116 -116 0
-32 -127 0
-32 -128 0
127 -127 0
128 -128 0
-50 -139 0
-50 -140 0
139 -139 0
140 -140 0
-68 -151 0
-68 -152 0
151 -151 0
152 -152 0
-86 -163 0
-86 -164 0
163 -163 0
164 -164 0
-104 -175 0
-104 -176 0
175 -175 0
176 -176 0
15 -115 0
15 -116 0
115 -115 0
116 -116 0
33 -127 0
33 -128 0
127 -127 0
128 -128 0
51 -139 0
51 -140 0
139 -139 0
140 -140 0
69 -151 0
69 -152 0
151 -151 0
152 -152 0
87 -163 0
87 -164 0
163 -163 0
164 -164 0
105 -175 0
105 -176 0
175 -175 0
176 -176 0
-16 -115 0
-16 -116 0
115 -115 0
116 -116 0
-34 -127 0
-34 -128 0
127 -127 0
128 -128 0
-52 -139 0
-52 -140 0
139 -139 0
140 -140 0
-70 -151 0
-70 -152 0
151 -151 0
152 -152 0
-88 -163 0
-88 -164 0
163 -163 0
164 -164 0
-106 -175 0
-106 -176 0
175 -175 0
176 -176 0
17 -115 0
17 -116 0
115 -115 0
116 -116 0
35 -127 0
35 -128 0
127 -127 0
128 -128 0
53 -139 0
53 -140 0
139 -139 0
140 -140 0
71 -151 0
71 -152 0
151 -151 0
152 -152 0
89 -163 0
89 -164 0
163 -163 0
164 -164 0
107 -175 0
107 -176 0
175 -175 0
176 -176 0
18 -115 0
18 -116 0
115 -115 0
116 -116 0
36 -127 0
36 -128 0
127 -127 0
128 -128 0
54 -139 0
54 -140 0
139 -139 0
140 -140 0
72 -151 0
72 -152 0
151 -151 0
152 -152 0
90 -163 0
90 -164 0
163 -163 0
164 -164 0
108 -175 0
108 -176 0
175 -175 0
176 -176 0
-295 115 0
295 -115 0
-296 116 0
295 -116 0
-295 -115 0
-296 -116 0
-307 115 295 0
307 -115 0
307 -295 0
-308 116 296 0
308 -116 0
308 -296 0
-307 -127 0
-308 -128 0
-319 127 307 0
319 -127 0
319 -307 0
-320 128 308 0
320 -128 0
320 -308 0
-319 -139 0
-320 -140 0
-331 139 319 0
331 -139 0
331 -319 0
-332 140 320 0
332 -140 0
332 -320 0
-331 -151 0
-332 -152 0
-343 151 331 0
343 -151 0
343 -331 0
-344 152 332 0
344 -152 0
344 -332 0
-343 -163 0
-344 -164 0
-355 163 343 0
355 -163 0
355 -343 0
-356 164 344 0
356 -164 0
356 -344 0
-355 -175 0
-356 -176 0
355 0
356 0
1 -202 -117 0
-1 202 -117 0
1 202 -118 0
-1 -202 -118 0
19 -202 -129 0
-19 202 -129 0
19 202 -130 0
-19 -202 -130 0
37 -202 -141 0
-37 202 -141 0
37 202 -142 0
-37 -202 -142 0
55 -202 -153 0
-55 202 -153 0
55 202 -154 0
-55 -202 -154 0
73 -202 -165 0
-73 202 -165 0
73 202 -166 0
-73 -202 -166 0
91 -202 -177 0
-91 202 -177 0
91 202 -178 0
-91 -202 -178 0
2 -203 -117 0
-2 203 -117 0
2 203 -118 0
-2 -203 -118 0
20 -203 -129 0
-20 203 -129 0
20 203 -130 0
-20 -203 -130 0
38 -203 -141 0
-38 203 -141 0
38 203 -142 0
-38 -203 -142 0
56 -203 -153 0
-56 203 -153 0
56 203 -154 0
-56 -203 -154 0
74 -203 -165 0
-74 203 -165 0
74 203 -166 0
-74 -203 -166 0
92 -203 -177 0
-92 203 -177 0
92 203 -178 0
-92 -203 -178 0
3 -204 -117 0
-3 204 -117 0
3 204 -118 0
-3 -204 -118 0
21 -204 -129 0
-21 204 -129 0
21 204 -130 0
-21 -204 -130 0
39 -204 -141 0
-39 204 -141 0
39 204 -142 0
-39 -204 -142 0
57 -204 -153 0
-57 204 -153 0
57 204 -154 0
-57 -204 -154 0
75 -204 -165 0
-75 204 -165 0
75 204 -166 0
-75 -204 -166 0
93 -204 -177 0
-93 204 -177 0
93 204 -178 0
-93 -204 -178 0
4 -205 -117 0
-4 205 -117 0
4 205 -118 0
-4 -205 -118 0
22 -205 -129 0
-22 205 -129 0
22 205 -130 0
-22 -205 -130 0
40 -205 -141 0
-40 205 -141 0
40 205 -142 0
-40 -205 -142 0
58 -205 -153 0
-58 205 -153 0
58 205 -154 0
-58 -205 -154 0
76 -205 -165 0
-76 205 -165 0
76 205 -166 0
-76 -205 -166 0
94 -205 -177 0
-94 205 -177 0
94 205 -178 0
-94 -205 -178 0
5 -206 -117 0
-5 206 -117 0
5 206 -118 0
-5 -206 -118 0
23 -206 -129 0
-23 206 -129 0
23 206 -130 0
-23 -206 -130 0
41 -206 -141 0
-41 206 -141 0
41 206 -142 0
-41 -206 -142 0
59 -206 -153 0
-59 206 -153 0
59 206 -154 0
-59 -206 -154 0
77 -206 -165 0
-77 206 -165 0
77 206 -166 0
-77 -206 -166 0
95 -206 -177 0
-95 206 -177 0
95 206 -178 0
-95 -206 -178 0
6 -117 0
6 -118 0
117 -117 0
118 -118 0
24 -129 0
24 -130 0
129 -129 0
130 -130 0
42 -141 0
42 -142 0
141 -141 0
142 -142 0
60 -153 0
60 -154 0
153 -153 0
154 -154 0
78 -165 0
78 -166 0
165 -165 0
166 -166 0
96 -177 0
96 -178 0
177 -177 0
178 -178 0
7 -207 -117 0
-7 207 -117 0
7 207 -118 0
-7 -207 -118 0
25 -207 -129 0
-25 207 -129 0
25 207 -130 0
-25 -207 -130 0
43 -207 -141 0
-43 207 -141 0
43 207 -142 0
-43 -207 -142 0
61 -207 -153 0
-61 207 -153 0
61 207 -154 0
-61 -207 -154 0
79 -207 -165 0
-79 207 -165 0
79 207 -166 0
-79 -207 -166 0
97 -207 -177 0
-97 207 -177 0
97 207 -178 0
-97 -207 -178 0
8 -117 0
8 -118 0
117 -117 0
118 -118 0
26 -129 0
26 -130 0
129 -129 0
130 -130 0
44 -141 0
44 -142 0
141 -141 0
142 -142 0
62 -153 0
62 -154 0
153 -153 0
154 -154 0
80 -165 0
80 -166 0
165 -165 0
166 -166 0
98 -177 0
98 -178 0
177 -177 0
178 -178 0
9 -117 0
9 -118 0
117 -117 0
118 -118 0
27 -129 0
27 -130 0
129 -129 0
130 -130 0
45 -141 0
45 -142 0
141 -141 0
142 -142 0
63 -153 0
63 -154 0
153 -153 0
154 -154 0
81 -165 0
81 -166 0
165 -165 0
166 -166 0
99 -177 0
99 -178 0
177 -177 0
178 -178 0
-10 -117 0
-10 -118 0
117 -117 0
118 -118 0
-28 -129 0
-28 -130 0
129 -129 0
130 -130 0
-46 -141 0
-46 -142 0
141 -141 0
142 -142 0
-64 -153 0
-64 -154 0
153 -153 0
154 -154 0
-82 -165 0
-82 -166 0
165 -165 0
166 -166 0
-100 -177 0
-100 -178 0
177 -177 0
178 -178 0
11 -117 0
11 -118 0
117 -117 0
118 -118 0
29 -129 0
29 -130 0
129 -129 0
130 -130 0
47 -141 0
47 -142 0
141 -141 0
142 -142 0
65 -153 0
65 -154 0
153 -153 0
154 -154 0
83 -165 0
83 -166 0
165 -165 0
166 -166 0
101 -177 0
101 -178 0
177 -177 0
178 -178 0
-12 -117 0
-12 -118 0
117 -117 0
118 -118 0
-30 -129 0
-30 -130 0
129 -129 0
130 -130 0
-48 -141 0
-48 -142 0
141 -141 0
142 -142 0
-66 -153 0
-66 -154 0
153 -153 0
154 -154 0
-84 -165 0
-84 -166 0
165 -165 0
166 -166 0
-102 -177 0
-102 -178 0
177 -177 0
178 -178 0
-13 -117 0
-13 -118 0
117 -117 0
118 -118 0
-31 -129 0
-31 -130 0
129 -129 0
130 -130 0
-49 -141 0
-49 -142 0
141 -141 0
142 -142 0
-67 -153 0
-67 -154 0
153 -153 0
154 -154 0
-85 -165 0
-85 -166 0
165 -165 0
166 -166 0
-103 -177 0
-103 -178 0
177 -177 0
178 -178 0
-14 -117 0
-14 -118 0
117 -117 0
118 -118 0
-32 -129 0
-32 -130 0
129 -129 0
130 -130 0
-50 -141 0
-50 -142 0
141 -141 0
142 -142 0
-68 -153 0
-68 -154 0
153 -153 0
154 -154 0
-86 -165 0
-86 -166 0
165 -165 0
166 -166 0
-104 -177 0
-104 -178 0
177 -177 0
178 -178 0
15 -208 -117 0
-15 208 -117 0
15 208 -118 0
-15 -208 -118 0
33 -208 -129 0
-33 208 -129 0
33 208 -130 0
-33 -208 -130 0
51 -208 -141 0
-51 208 -141 0
51 208 -142 0
-51 -208 -142 0
69 -208 -153 0
-69 208 -153 0
69 208 -154 0
-69 -208 -154 0
87 -208 -165 0
-87 208 -165 0
87 208 -166 0
-87 -208 -166 0
105 -208 -177 0
-105 208 -177 0
105 208 -178 0
-105 -208 -178 0
-16 -117 0
-16 -118 0
117 -117 0
118 -118 0
-34 -129 0
-34 -130 0
129 -129 0
130 -130 0
-52 -141 0
-52 -142 0
141 -141 0
142 -142 0
-70 -153 0
-70 -154 0
153 -153 0
154 -154 0
-88 -165 0
-88 -166 0
165 -165 0
166 -166 0
-106 -177 0
-106 -178 0
177 -177 0
178 -178 0
17 -117 0
17 -118 0
117 -117 0
118 -118 0
35 -129 0
35 -130 0
129 -129 0
130 -130 0
53 -141 0
53 -142 0
141 -141 0
142 -142 0
71 -153 0
71 -154 0
153 -153 0
154 -154 0
89 -165 0
89 -166 0
165 -165 0
166 -166 0
107 -177 0
107 -178 0
177 -177 0
178 -178 0
18 -117 0
18 -118 0
117 -117 0
118 -118 0
36 -129 0
36 -130 0
129 -129 0
130 -130 0
54 -141 0
54 -142 0
141 -141 0
142 -142 0
72 -153 0
72 -154 0
153 -153 0
154 -154 0
90 -165 0
90 -166 0
165 -165 0
166 -166 0
108 -177 0
108 -178 0
177 -177 0
178 -178 0
-297 117 0
297 -117 0
-298 118 0
297 -118 0
-297 -117 0
-298 -118 0
-309 117 297 0
309 -117 0
309 -297 0
-310 118 298 0
310 -118 0
310 -298 0
-309 -129 0
-310 -130 0
-321 129 309 0
321 -129 0
321 -309 0
-322 130 310 0
322 -130 0
322 -310 0
-321 -141 0
-322 -142 0
-333 141 321 0
333 -141 0
333 -321 0
-334 142 322 0
334 -142 0
334 -322 0
-333 -153 0
-334 -154 0
-345 153 333 0
345 -153 0
345 -333 0
-346 154 334 0
346 -154 0
346 -334 0
-345 -165 0
-346 -166 0
-357 165 345 0
357 -165 0
357 -345 0
-358 166 346 0
358 -166 0
358 -346 0
-357 -177 0
-358 -178 0
357 0
358 0
1 -119 0
1 -120 0
119 -119 0
120 -120 0
19 -131 0
19 -132 0
131 -131 0
132 -132 0
37 -143 0
37 -144 0
143 -143 0
144 -144 0
55 -155 0
55 -156 0
155 -155 0
156 -156 0
73 -167 0
73 -168 0
167 -167 0
168 -168 0
91 -179 0
91 -180 0
179 -179 0
180 -180 0
-2 -119 0
-2 -120 0
119 -119 0
120 -120 0
-20 -131 0
-20 -132 0
131 -131 0
132 -132 0
-38 -143 0
-38 -144 0
143 -143 0
144 -144 0
-56 -155 0
-56 -156 0
155 -155 0
156 -156 0
-74 -167 0
-74 -168 0
167 -167 0
168 -168 0
-92 -179 0
-92 -180 0
179 -179 0
180 -180 0
3 -119 0
3 -120 0
119 -119 0
120 -120 0
21 -131 0
21 -132 0
131 -131 0
132 -132 0
39 -143 0
39 -144 0
143 -143 0
144 -144 0
57 -155 0
57 -156 0
155 -155 0
156 -156 0
75 -167 0
75 -168 0
167 -167 0
168 -168 0
93 -179 0
93 -180 0
179 -179 0
180 -180 0
4 -209 -119 0
-4 209 -119 0
4 209 -120 0
-4 -209 -120 0
22 -209 -131 0
-22 209 -131 0
22 209 -132 0
-22 -209 -132 0
40 -209 -143 0
-40 209 -143 0
40 209 -144 0
-40 -209 -144 0
58 -209 -155 0
-58 209 -155 0
58 209 -156 0
-58 -209 -156 0
76 -209 -167 0
-76 209 -167 0
76 209 -168 0
-76 -209 -168 0
94 -209 -179 0
-94 209 -179 0
94 209 -180 0
-94 -209 -180 0
5 -210 -119 0
-5 210 -119 0
5 210 -120 0
-5 -210 -120 0
23 -210 -131 0
-23 210 -131 0
23 210 -132 0
-23 -210 -132 0
41 -210 -143 0
-41 210 -143 0
41 210 -144 0
-41 -210 -144 0
59 -210 -155 0
-59 210 -155 0
59 210 -156 0
-59 -210 -156 0
77 -210 -167 0
-77 210 -167 0
77 210 -168 0
-77 -210 -168 0
95 -210 -179 0
-95 210 -179 0
95 210 -180 0
-95 -210 -180 0
6 -119 0
6 -120 0
119 -119 0
120 -120 0
24 -131 0
24 -132 0
131 -131 0
132 -132 0
42 -143 0
42 -144 0
143 -143 0
144 -144 0
60 -155 0
60 -156 0
155 -155 0
156 -156 0
78 -167 0
78 -168 0
167 -167 0
168 -168 0
96 -179 0
96 -180 0
179 -179 0
180 -180 0
7 -211 -119 0
-7 211 -119 0
7 211 -120 0
-7 -211 -120 0
25 -211 -131 0
-25 211 -131 0
25 211 -132 0
-25 -211 -132 0
43 -211 -143 0
-43 211 -143 0
43 211 -144 0
-43 -211 -144 0
61 -211 -155 0
-61 211 -155 0
61 211 -156 0
-61 -211 -156 0
79 -211 -167 0
-79 211 -167 0
79 211 -168 0
-79 -211 -168 0
97 -211 -179 0
-97 211 -179 0
97 211 -180 0
-97 -211 -180 0
8 -212 -119 0
-8 212 -119 0
8 212 -120 0
-8 -212 -120 0
26 -212 -131 0
-26 212 -131 0
26 212 -132 0
-26 -212 -132 0
44 -212 -143 0
-44 212 -143 0
44 212 -144 0
-44 -212 -144 0
62 -212 -155 0
-62 212 -155 0
62 212 -156 0
-62 -212 -156 0
80 -212 -167 0
-80 212 -167 0
80 212 -168 0
-80 -212 -168 0
98 -212 -179 0
-98 212 -179 0
98 212 -180 0
-98 -212 -180 0
9 -119 0
9 -120 0
119 -119 0
120 -120 0
27 -131 0
27 -132 0
131 -131 0
132 -132 0
45 -143 0
45 -144 0
143 -143 0
144 -144 0
63 -155 0
63 -156 0
155 -155 0
156 -156 0
81 -167 0
81 -168 0
167 -167 0
168 -168 0
99 -179 0
99 -180 0
179 -179 0
180 -180 0
10 -213 -119 0
-10 213 -119 0
10 213 -120 0
-10 -213 -120 0
28 -213 -131 0
-28 213 -131 0
28 213 -132 0
-28 -213 -132 0
46 -213 -143 0
-46 213 -143 0
46 213 -144 0
-46 -213 -144 0
64 -213 -155 0
-64 213 -155 0
64 213 -156 0
-64 -213 -156 0
82 -213 -167 0
-82 213 -167 0
82 213 -168 0
-82 -213 -168 0
100 -213 -179 0
-100 213 -179 0
100 213 -180 0
-100 -213 -180 0
11 -214 -119 0
-11 214 -119 0
11 214 -120 0
-11 -214 -120 0
29 -214 -131 0
-29 214 -131 0
29 214 -132 0
-29 -214 -132 0
47 -214 -143 0
-47 214 -143 0
47 214 -144 0
-47 -214 -144 0
65 -214 -155 0
-65 214 -155 0
65 214 -156 0
-65 -214 -156 0
83 -214 -167 0
-83 214 -167 0
83 214 -168 0
-83 -214 -168 0
101 -214 -179 0
-101 214 -179 0
101 214 -180 0
-101 -214 -180 0
12 -215 -119 0
-12 215 -119 0
12 215 -120 0
-12 -215 -120 0
30 -215 -131 0
-30 215 -131 0
30 215 -132 0
-30 -215 -132 0
48 -215 -143 0
-48 215 -143 0
48 215 -144 0
-48 -215 -144 0
66 -215 -155 0
-66 215 -155 0
66 215 -156 0
-66 -215 -156 0
84 -215 -167 0
-84 215 -167 0
84 215 -168 0
-84 -215 -168 0
102 -215 -179 0
-102 215 -179 0
102 215 -180 0
-102 -215 -180 0
13 -216 -119 0
-13 216 -119 0
13 216 -120 0
-13 -216 -120 0
31 -216 -131 0
-31 216 -131 0
31 216 -132 0
-31 -216 -132 0
49 -216 -143 0
-49 216 -143 0
49 216 -144 0
-49 -216 -144 0
67 -216 -155 0
-67 216 -155 0
67 216 -156 0
-67 -216 -156 0
85 -216 -167 0
-85 216 -167 0
85 216 -168 0
-85 -216 -168 0
103 -216 -179 0
-103 216 -179 0
103 216 -180 0
-103 -216 -180 0
14 -217 -119 0
-14 217 -119 0
14 217 -120 0
-14 -217 -120 0
32 -217 -131 0
-32 217 -131 0
32 217 -132 0
-32 -217 -132 0
50 -217 -143 0
-50 217 -143 0
50 217 -144 0
-50 -217 -144 0
68 -217 -155 0
-68 217 -155 0
68 217 -156 0
-68 -217 -156 0
86 -217 -167 0
-86 217 -167 0
86 217 -168 0
-86 -217 -168 0
104 -217 -179 0
-104 217 -179 0
104 217 -180 0
-104 -217 -180 0
15 -119 0
15 -120 0
119 -119 0
120 -120 0
33 -131 0
33 -132 0
131 -131 0
132 -132 0
51 -143 0
51 -144 0
143 -143 0
144 -144 0
69 -155 0
69 -156 0
155 -155 0
156 -156 0
87 -167 0
87 -168 0
167 -167 0
168 -168 0
105 -179 0
105 -180 0
179 -179 0
180 -180 0
16 -218 -119 0
-16 218 -119 0
16 218 -120 0
-16 -218 -120 0
34 -218 -131 0
-34 218 -131 0
34 218 -132 0
-34 -218 -132 0
52 -218 -143 0
-52 218 -143 0
52 218 -144 0
-52 -218 -144 0
70 -218 -155 0
-70 218 -155 0
70 218 -156 0
-70 -218 -156 0
88 -218 -167 0
-88 218 -167 0
88 218 -168 0
-88 -218 -168 0
106 -218 -179 0
-106 218 -179 0
106 218 -180 0
-106 -218 -180 0
17 -119 0
17 -120 0
119 -119 0
120 -120 0
35 -131 0
35 -132 0
131 -131 0
132 -132 0
53 -143 0
53 -144 0
143 -143 0
144 -144 0
71 -155 0
71 -156 0
155 -155 0
156 -156 0
89 -167 0
89 -168 0
167 -167 0
168 -168 0
107 -179 0
107 -180 0
179 -179 0
180 -180 0
18 -119 0
18 -120 0
119 -119 0
120 -120 0
36 -131 0
36 -132 0
131 -131 0
132 -132 0
54 -143 0
54 -144 0
143 -143 0
144 -144 0
72 -155 0
72 -156 0
155 -155 0
156 -156 0
90 -167 0
90 -168 0
167 -167 0
168 -168 0
108 -179 0
108 -180 0
179 -179 0
180 -180 0
-299 119 0
299 -119 0
-300 120 0
299 -120 0
-299 -119 0
-300 -120 0
-311 119 299 0
311 -119 0
311 -299 0
-312 120 300 0
312 -120 0
312 -300 0
-311 -131 0
-312 -132 0
-323 131 311 0
323 -131 0
323 -311 0
-324 132 312 0
324 -132 0
324 -312 0
-323 -143 0
-324 -144 0
-335 143 323 0
335 -143 0
335 -323 0
-336 144 324 0
336 -144 0
336 -324 0
-335 -155 0
-336 -156 0
-347 155 335 0
347 -155 0
347 -335 0
-348 156 336 0
348 -156 0
348 -336 0
-347 -167 0
-348 -168 0
-359 167 347 0
359 -167 0
359 -347 0
-360 168 348 0
360 -168 0
360 -348 0
-359 -179 0
-360 -180 0
359 0
360 0
